p cnf 412 698
41 7 -13 76 0
41 7 -13 -76 0
-43 36 48 77 0
-43 36 48 -77 0
12 -13 62 78 0
12 -13 62 -78 0
27 15 -65 79 0
27 15 -65 -79 0
31 -46 -33 80 0
31 -46 -33 -80 0
-29 4 -48 81 0
-29 4 -48 -81 0
-20 -66 16 82 0
-20 -66 16 -82 0
23 67 36 83 0
23 67 36 -83 0
21 -45 -44 84 0
21 -45 -44 -84 0
70 6 -26 85 0
70 6 -26 -85 0
-70 41 69 86 0
-70 41 69 -86 0
22 27 -8 87 0
22 27 -8 -87 0
60 -42 -55 88 0
60 -42 -55 -88 0
50 72 42 89 0
50 72 42 -89 0
74 1 23 90 0
74 1 23 -90 0
15 -24 75 91 0
15 -24 75 -91 0
25 -13 -33 92 0
25 -13 -33 -92 0
-20 -34 -18 93 0
-20 -34 -18 -93 0
71 -29 -65 94 0
71 -29 -65 -94 0
55 -46 72 95 0
55 -46 72 -95 0
36 9 -49 96 0
36 9 -49 -96 0
-41 52 -73 97 0
-41 52 -73 -97 0
17 -60 -66 98 0
17 -60 -66 -98 0
-12 -68 -50 99 0
-12 -68 -50 -99 0
28 10 -43 100 0
28 10 -43 -100 0
65 13 42 101 0
65 13 42 -101 0
-64 -69 58 102 0
-64 -69 58 -102 0
35 8 69 103 0
35 8 69 -103 0
-11 35 -26 104 0
-11 35 -26 -104 0
-30 -36 75 105 0
-30 -36 75 -105 0
65 54 -16 106 0
65 54 -16 -106 0
38 -66 39 107 0
38 -66 39 -107 0
30 -13 -38 108 0
30 -13 -38 -108 0
57 49 20 109 0
57 49 20 -109 0
-73 -63 -72 110 0
-73 -63 -72 -110 0
50 30 -16 111 0
50 30 -16 -111 0
-43 -23 -24 112 0
-43 -23 -24 -112 0
-17 -13 -15 113 0
-17 -13 -15 -113 0
21 -24 -20 114 0
21 -24 -20 -114 0
26 45 34 115 0
26 45 34 -115 0
22 4 -40 116 0
22 4 -40 -116 0
-22 -52 20 117 0
-22 -52 20 -117 0
23 56 32 118 0
23 56 32 -118 0
-38 -42 31 119 0
-38 -42 31 -119 0
-28 -20 57 120 0
-28 -20 57 -120 0
71 63 14 121 0
71 63 14 -121 0
-32 47 74 122 0
-32 47 74 -122 0
70 40 -18 123 0
70 40 -18 -123 0
-33 40 -5 124 0
-33 40 -5 -124 0
-75 49 -18 125 0
-75 49 -18 -125 0
67 -31 -47 126 0
67 -31 -47 -126 0
28 -23 -44 127 0
28 -23 -44 -127 0
64 68 25 128 0
64 68 25 -128 0
-45 -52 66 129 0
-45 -52 66 -129 0
-47 39 60 130 0
-47 39 60 -130 0
49 12 -50 131 0
49 12 -50 -131 0
-18 -45 -63 132 0
-18 -45 -63 -132 0
-46 -61 -53 133 0
-46 -61 -53 -133 0
22 37 48 134 0
22 37 48 -134 0
24 -58 -50 135 0
24 -58 -50 -135 0
28 -21 6 136 0
28 -21 6 -136 0
44 -59 -68 137 0
44 -59 -68 -137 0
-16 15 -49 138 0
-16 15 -49 -138 0
65 -31 3 139 0
65 -31 3 -139 0
49 67 -70 140 0
49 67 -70 -140 0
18 29 63 141 0
18 29 63 -141 0
-46 75 -13 142 0
-46 75 -13 -142 0
-27 -46 70 143 0
-27 -46 70 -143 0
-41 -29 35 144 0
-41 -29 35 -144 0
-56 -40 -70 145 0
-56 -40 -70 -145 0
17 6 -24 146 0
17 6 -24 -146 0
-34 75 54 147 0
-34 75 54 -147 0
26 -64 54 148 0
26 -64 54 -148 0
-25 -29 46 149 0
-25 -29 46 -149 0
-63 51 -1 150 0
-63 51 -1 -150 0
-52 -43 70 151 0
-52 -43 70 -151 0
54 -5 -23 152 0
54 -5 -23 -152 0
40 1 48 153 0
40 1 48 -153 0
35 46 -64 154 0
35 46 -64 -154 0
-42 -18 -35 155 0
-42 -18 -35 -155 0
31 -51 -28 156 0
31 -51 -28 -156 0
-48 -29 -4 157 0
-48 -29 -4 -157 0
55 -24 54 158 0
55 -24 54 -158 0
-64 1 46 159 0
-64 1 46 -159 0
-37 47 18 160 0
-37 47 18 -160 0
57 -45 -67 161 0
57 -45 -67 -161 0
8 -43 -70 162 0
8 -43 -70 -162 0
-66 -18 -4 163 0
-66 -18 -4 -163 0
45 34 -46 164 0
45 34 -46 -164 0
16 -47 22 165 0
16 -47 22 -165 0
-50 25 6 166 0
-50 25 6 -166 0
8 -42 44 167 0
8 -42 44 -167 0
-57 44 -24 168 0
-57 44 -24 -168 0
-30 -57 -28 169 0
-30 -57 -28 -169 0
-50 -12 -11 170 0
-50 -12 -11 -170 0
-33 -20 3 171 0
-33 -20 3 -171 0
39 -68 -3 172 0
39 -68 -3 -172 0
14 52 24 173 0
14 52 24 -173 0
-32 -66 18 174 0
-32 -66 18 -174 0
23 41 -26 175 0
23 41 -26 -175 0
12 70 -15 176 0
12 70 -15 -176 0
-51 72 -68 177 0
-51 72 -68 -177 0
-34 -18 -39 178 0
-34 -18 -39 -178 0
18 -12 -66 179 0
18 -12 -66 -179 0
-50 -18 -22 180 0
-50 -18 -22 -180 0
71 62 54 181 0
71 62 54 -181 0
11 51 8 182 0
11 51 8 -182 0
65 -62 30 183 0
65 -62 30 -183 0
29 62 21 184 0
29 62 21 -184 0
75 -72 34 185 0
75 -72 34 -185 0
-5 67 -71 186 0
-5 67 -71 -186 0
69 13 -47 187 0
69 13 -47 -187 0
-14 5 62 188 0
-14 5 62 -188 0
-52 62 -17 189 0
-52 62 -17 -189 0
-13 5 36 190 0
-13 5 36 -190 0
-55 31 23 191 0
-55 31 23 -191 0
47 8 -37 192 0
47 8 -37 -192 0
18 -22 57 193 0
18 -22 57 -193 0
-35 41 1 194 0
-35 41 1 -194 0
-16 50 10 195 0
-16 50 10 -195 0
7 -1 66 196 0
7 -1 66 -196 0
55 -23 12 197 0
55 -23 12 -197 0
-68 -58 42 198 0
-68 -58 42 -198 0
-63 -23 72 199 0
-63 -23 72 -199 0
68 -14 8 200 0
68 -14 8 -200 0
37 71 30 201 0
37 71 30 -201 0
-32 4 -28 202 0
-32 4 -28 -202 0
63 -13 -51 203 0
63 -13 -51 -203 0
60 -49 57 204 0
60 -49 57 -204 0
29 -73 -23 205 0
29 -73 -23 -205 0
67 57 6 206 0
67 57 6 -206 0
50 10 38 207 0
50 10 38 -207 0
5 42 -6 208 0
5 42 -6 -208 0
-19 1 29 209 0
-19 1 29 -209 0
15 66 -9 210 0
15 66 -9 -210 0
14 12 -52 211 0
14 12 -52 -211 0
-29 6 68 212 0
-29 6 68 -212 0
21 -28 64 213 0
21 -28 64 -213 0
70 5 -18 214 0
70 5 -18 -214 0
-34 -20 -45 215 0
-34 -20 -45 -215 0
38 70 2 216 0
38 70 2 -216 0
-71 41 -37 217 0
-71 41 -37 -217 0
-11 52 -12 218 0
-11 52 -12 -218 0
16 71 2 219 0
16 71 2 -219 0
-13 52 26 220 0
-13 52 26 -220 0
-47 -57 1 221 0
-47 -57 1 -221 0
-5 -66 54 222 0
-5 -66 54 -222 0
25 -64 -61 223 0
25 -64 -61 -223 0
34 4 59 224 0
34 4 59 -224 0
-42 49 -53 225 0
-42 49 -53 -225 0
-74 -3 -54 226 0
-74 -3 -54 -226 0
-13 56 40 227 0
-13 56 40 -227 0
-1 46 -8 228 0
-1 46 -8 -228 0
48 41 74 229 0
48 41 74 -229 0
32 42 -9 230 0
32 42 -9 -230 0
-7 33 43 231 0
-7 33 43 -231 0
-35 45 74 232 0
-35 45 74 -232 0
18 36 -65 233 0
18 36 -65 -233 0
20 69 37 234 0
20 69 37 -234 0
-53 -56 -5 235 0
-53 -56 -5 -235 0
-25 72 68 236 0
-25 72 68 -236 0
16 74 9 237 0
16 74 9 -237 0
-33 70 17 238 0
-33 70 17 -238 0
2 9 51 239 0
2 9 51 -239 0
-72 13 -17 240 0
-72 13 -17 -240 0
-7 -74 51 241 0
-7 -74 51 -241 0
10 71 3 242 0
10 71 3 -242 0
-45 43 -30 243 0
-45 43 -30 -243 0
-74 -26 54 244 0
-74 -26 54 -244 0
62 42 23 245 0
62 42 23 -245 0
58 30 24 246 0
58 30 24 -246 0
-38 75 -40 247 0
-38 75 -40 -247 0
24 53 -30 248 0
24 53 -30 -248 0
-9 -29 -54 249 0
-9 -29 -54 -249 0
-44 -39 12 250 0
-44 -39 12 -250 0
-29 -17 -60 251 0
-29 -17 -60 -251 0
-25 -8 -62 252 0
-25 -8 -62 -252 0
64 12 -50 253 0
64 12 -50 -253 0
-18 30 5 254 0
-18 30 5 -254 0
-60 56 42 255 0
-60 56 42 -255 0
33 -57 45 256 0
33 -57 45 -256 0
-5 -68 23 257 0
-5 -68 23 -257 0
-64 -44 -22 258 0
-64 -44 -22 -258 0
16 6 73 259 0
16 6 73 -259 0
-23 -62 66 260 0
-23 -62 66 -260 0
-17 15 -75 261 0
-17 15 -75 -261 0
2 38 35 262 0
2 38 35 -262 0
-35 -18 -60 263 0
-35 -18 -60 -263 0
24 71 -52 264 0
24 71 -52 -264 0
32 39 -23 265 0
32 39 -23 -265 0
45 -36 40 266 0
45 -36 40 -266 0
-33 -30 -42 267 0
-33 -30 -42 -267 0
-15 -2 41 268 0
-15 -2 41 -268 0
-20 -54 -64 269 0
-20 -54 -64 -269 0
74 -33 5 270 0
74 -33 5 -270 0
-62 -30 27 271 0
-62 -30 27 -271 0
-18 -9 -1 272 0
-18 -9 -1 -272 0
13 -70 23 273 0
13 -70 23 -273 0
-29 30 -23 274 0
-29 30 -23 -274 0
69 -57 68 275 0
69 -57 68 -275 0
75 -72 -5 276 0
75 -72 -5 -276 0
-60 -74 -68 277 0
-60 -74 -68 -277 0
-42 10 55 278 0
-42 10 55 -278 0
-23 -47 62 279 0
-23 -47 62 -279 0
34 -35 68 280 0
34 -35 68 -280 0
-45 -49 30 281 0
-45 -49 30 -281 0
33 -59 10 282 0
33 -59 10 -282 0
-10 16 64 283 0
-10 16 64 -283 0
-21 6 67 284 0
-21 6 67 -284 0
-7 -9 52 285 0
-7 -9 52 -285 0
28 72 70 286 0
28 72 70 -286 0
-11 18 -52 287 0
-11 18 -52 -287 0
-63 -40 -50 288 0
-63 -40 -50 -288 0
-6 -4 75 289 0
-6 -4 75 -289 0
-22 57 -24 290 0
-22 57 -24 -290 0
20 64 -63 291 0
20 64 -63 -291 0
42 27 14 292 0
42 27 14 -292 0
-4 -68 -2 293 0
-4 -68 -2 -293 0
-47 -59 -3 294 0
-47 -59 -3 -294 0
62 3 -34 295 0
62 3 -34 -295 0
-1 21 -59 296 0
-1 21 -59 -296 0
-59 2 26 297 0
-59 2 26 -297 0
35 23 36 298 0
35 23 36 -298 0
47 -59 38 299 0
47 -59 38 -299 0
5 -42 -49 300 0
5 -42 -49 -300 0
17 63 26 301 0
17 63 26 -301 0
-64 -25 51 302 0
-64 -25 51 -302 0
-20 -67 30 303 0
-20 -67 30 -303 0
-16 -40 -14 304 0
-16 -40 -14 -304 0
-68 63 -19 305 0
-68 63 -19 -305 0
9 19 -48 306 0
9 19 -48 -306 0
59 -11 -20 307 0
59 -11 -20 -307 0
-41 -16 -56 308 0
-41 -16 -56 -308 0
-25 -12 38 309 0
-25 -12 38 -309 0
57 -56 33 310 0
57 -56 33 -310 0
-31 2 -67 311 0
-31 2 -67 -311 0
48 35 -7 312 0
48 35 -7 -312 0
-49 -46 51 313 0
-49 -46 51 -313 0
69 -53 35 314 0
69 -53 35 -314 0
46 -24 -10 315 0
46 -24 -10 -315 0
22 -1 69 316 0
22 -1 69 -316 0
75 -38 52 317 0
75 -38 52 -317 0
-3 -19 53 318 0
-3 -19 53 -318 0
1 56 -73 319 0
1 56 -73 -319 0
-64 -57 63 320 0
-64 -57 63 -320 0
-66 6 35 321 0
-66 6 35 -321 0
-1 19 62 322 0
-1 19 62 -322 0
59 28 -51 323 0
59 28 -51 -323 0
-55 -6 19 324 0
-55 -6 19 -324 0
17 31 -12 325 0
17 31 -12 -325 0
-38 19 2 326 0
-38 19 2 -326 0
20 -3 -39 327 0
20 -3 -39 -327 0
39 -37 17 328 0
39 -37 17 -328 0
-52 53 -28 329 0
-52 53 -28 -329 0
26 -46 -25 330 0
26 -46 -25 -330 0
33 12 -72 331 0
33 12 -72 -331 0
54 28 -1 332 0
54 28 -1 -332 0
7 72 16 333 0
7 72 16 -333 0
-44 -63 66 334 0
-44 -63 66 -334 0
64 -9 -65 335 0
64 -9 -65 -335 0
-66 2 -50 336 0
-66 2 -50 -336 0
-61 14 -9 337 0
-61 14 -9 -337 0
-41 -38 -40 338 0
-41 -38 -40 -338 0
-70 29 37 339 0
-70 29 37 -339 0
-5 13 -28 340 0
-5 13 -28 -340 0
33 17 74 341 0
33 17 74 -341 0
-64 -65 49 342 0
-64 -65 49 -342 0
40 -17 42 343 0
40 -17 42 -343 0
54 -69 55 344 0
54 -69 55 -344 0
-34 -59 -16 345 0
-34 -59 -16 -345 0
-58 11 -57 346 0
-58 11 -57 -346 0
-17 6 51 347 0
-17 6 51 -347 0
69 -43 -44 348 0
69 -43 -44 -348 0
-62 -25 36 349 0
-62 -25 36 -349 0
-44 -73 -74 350 0
-44 -73 -74 -350 0
25 42 62 351 0
25 42 62 -351 0
-67 40 10 352 0
-67 40 10 -352 0
69 -23 55 353 0
69 -23 55 -353 0
-5 44 52 354 0
-5 44 52 -354 0
-56 54 -13 355 0
-56 54 -13 -355 0
31 -62 -39 356 0
31 -62 -39 -356 0
22 60 -27 357 0
22 60 -27 -357 0
43 -20 -3 358 0
43 -20 -3 -358 0
50 62 -29 359 0
50 62 -29 -359 0
-41 -8 -16 360 0
-41 -8 -16 -360 0
51 18 39 361 0
51 18 39 -361 0
1 57 -15 362 0
1 57 -15 -362 0
7 55 -62 363 0
7 55 -62 -363 0
68 52 -31 364 0
68 52 -31 -364 0
-59 43 -66 365 0
-59 43 -66 -365 0
53 72 70 366 0
53 72 70 -366 0
-47 10 11 367 0
-47 10 11 -367 0
28 -43 3 368 0
28 -43 3 -368 0
58 -44 -57 369 0
58 -44 -57 -369 0
-71 -49 -27 370 0
-71 -49 -27 -370 0
38 -25 -44 371 0
38 -25 -44 -371 0
-63 12 73 372 0
-63 12 73 -372 0
-27 -65 24 373 0
-27 -65 24 -373 0
23 -9 -10 374 0
23 -9 -10 -374 0
31 47 -20 375 0
31 47 -20 -375 0
54 44 36 376 0
54 44 36 -376 0
-73 21 1 377 0
-73 21 1 -377 0
-17 46 -14 378 0
-17 46 -14 -378 0
68 -34 -63 379 0
68 -34 -63 -379 0
72 -25 -33 380 0
72 -25 -33 -380 0
-9 19 20 381 0
-9 19 20 -381 0
-58 28 -49 382 0
-58 28 -49 -382 0
7 40 -39 383 0
7 40 -39 -383 0
-74 -72 8 384 0
-74 -72 8 -384 0
47 70 -26 385 0
47 70 -26 -385 0
-55 -20 -9 386 0
-55 -20 -9 -386 0
28 46 66 387 0
28 46 66 -387 0
69 -35 -54 388 0
69 -35 -54 -388 0
6 -53 -54 389 0
6 -53 -54 -389 0
-16 11 -48 390 0
-16 11 -48 -390 0
-32 -69 -3 391 0
-32 -69 -3 -391 0
-4 21 -37 392 0
-4 21 -37 -392 0
-8 -14 26 393 0
-8 -14 26 -393 0
43 -52 57 394 0
43 -52 57 -394 0
-74 -5 -30 395 0
-74 -5 -30 -395 0
29 -3 38 396 0
29 -3 38 -396 0
-23 -47 -51 397 0
-23 -47 -51 -397 0
-50 49 -11 398 0
-50 49 -11 -398 0
-4 3 32 399 0
-4 3 32 -399 0
6 -22 -27 400 0
6 -22 -27 -400 0
401 402 403 404 0
401 402 403 -404 0
401 402 -403 404 0
401 402 -403 -404 0
401 -402 403 404 0
401 -402 403 -404 0
401 -402 -403 404 0
401 -402 -403 -404 0
-401 402 403 404 0
-401 402 403 -404 0
-401 402 -403 404 0
-401 402 -403 -404 0
-401 -402 403 404 0
-401 -402 403 -404 0
-401 -402 -403 404 0
-401 -402 -403 -404 0
405 406 407 408 0
405 406 407 -408 0
405 406 -407 408 0
405 406 -407 -408 0
405 -406 407 408 0
405 -406 407 -408 0
405 -406 -407 408 0
405 -406 -407 -408 0
-405 406 407 408 0
-405 406 407 -408 0
-405 406 -407 408 0
-405 406 -407 -408 0
-405 -406 407 408 0
-405 -406 407 -408 0
-405 -406 -407 408 0
-405 -406 -407 -408 0
409 410 411 412 0
409 410 411 -412 0
409 410 -411 412 0
409 410 -411 -412 0
409 -410 411 412 0
409 -410 411 -412 0
409 -410 -411 412 0
409 -410 -411 -412 0
-409 410 411 412 0
-409 410 411 -412 0
-409 410 -411 412 0
-409 410 -411 -412 0
-409 -410 411 412 0
-409 -410 411 -412 0
-409 -410 -411 412 0
-409 -410 -411 -412 0
